treewidth/data/SylvesterGraph.gr
p tw 36 90
1 2
1 14
1 18
1 22
1 27
2 17
2 21
2 26
2 30
13 31
13 32
13 15
13 20
13 26
24 32
24 11
24 16
24 21
24 27
31 12
31 17
31 22
31 28
32 18
32 23
32 29
33 35
33 36
33 16
33 23
33 30
34 36
34 11
34 17
34 18
34 25
35 12
35 19
35 26
35 27
36 14
36 20
36 28
3 5
3 6
3 17
3 19
3 29
4 6
4 11
4 20
4 22
4 30
5 12
5 14
5 21
5 23
6 15
6 25
6 27
7 9
7 10
7 21
7 25
7 28
8 10
8 11
8 14
8 26
8 29
9 12
9 15
9 18
9 30
10 16
10 19
10 22
11 12
14 15
15 16
16 17
18 19
19 20
20 21
22 23
23 25
25 26
27 28
28 29
29 30
