treewidth/data/SylvesterGraph.td
c width = 15, time = 5.097921
s td 17 16 36
b 1 7 8 10 16 19 22
b 2 2 5 6 7 8 12 13 16 19 22 23 27 30 32 34 36
b 3 2 5 6 7 8 12 13 16 18 19 22 27 30 32 34 36
b 4 2 5 6 7 8 12 13 15 16 18 22 27 30 36
b 5 1 2 5 8 14 15 18 22 27 36
b 6 7 9 12 15 18 30
b 7 2 5 6 7 8 12 13 16 19 22 27 30 31 32 34 36
b 8 2 5 6 7 8 16 19 27 29 30 31 32 34 36
b 9 2 3 5 6 16 17 19 29 31 34
b 10 7 27 28 29 31 36
b 11 2 5 6 7 8 12 13 16 19 22 24 27 30 32 34 36
b 12 2 5 6 7 8 12 13 19 20 22 24 30 34 36
b 13 4 6 8 11 12 20 22 24 30 34
b 14 2 5 7 20 21 24
b 15 2 6 7 8 12 13 16 19 23 27 30 34 35 36
b 16 2 6 7 8 13 23 25 26 34 35
b 17 16 23 30 33 35 36
4 5
4 6
3 4
2 3
8 9
8 10
7 8
2 7
12 13
12 14
11 12
2 11
15 16
15 17
2 15
1 2
